
--- Job bchfcnet.gms Start 02/08/22 12:13:12 34.3.0 rac355f3 WEX-WEI x86 64bit/MS Windows
--- Applying:
    C:\GAMS\34\gmsprmNT.txt
--- GAMS Parameters defined
    Input C:\Users\dekhi\Desktop\gamsworld\FCNetLib\test\bchfcnet.gms
    PageSize 0
    ScrDir C:\Users\dekhi\Desktop\gamsworld\FCNetLib\test\225a\
    SysDir C:\GAMS\34\
    LogOption 3
    ErrMsg 1
    ErrorLog 99
    IDE 1
    ResLim 3600
    LstTitleLeftAligned 1
Licensee: Eval License                                   S211214|0002AW-GEN
          Ostfalia Hochschule fuer angewandte Wissenschaften        DCE1645
          C:\Users\dekhi\Documents\GAMS\gamslice.txt
          License Admin: Mohamed Ali Dekhil, dekhil.medali@gmail.com       
          Evaluation license: Not for commercial or production use
GAMS 34.3.0   Copyright (C) 1987-2021 GAMS Development. All rights reserved
--- Starting compilation
--- bchfcnet.gms(34) 2 Mb
--- . decl.gms(15) 2 Mb
--- bchfcnet.gms(38) 2 Mb
--- . brasil.inc(3348) 3 Mb
--- bchfcnet.gms(67) 3 Mb
--- . equs.gms(20) 3 Mb
--- bchfcnet.gms(97) 3 Mb
--- call rm -f bchout_i.gdx startcut.txt startheur.txt cuthist.gdx agap.txt rgap.txt cntfail.txt
--- bchfcnet.gms(118) 3 Mb
--- Starting execution: elapsed 0:00:00.084
--- bchfcnet.gms(3406) 5 Mb
--- GDX File (execute_unload) C:\Users\dekhi\Desktop\gamsworld\FCNetLib\test\net.gdx
--- bchfcnet.gms(3497) 5 Mb
--- GDXin=C:\Users\dekhi\Desktop\gamsworld\FCNetLib\test\points\brasil.gdx
--- bchfcnet.gms(3497) 5 Mb
--- GDX File (execute_load) C:\Users\dekhi\Desktop\gamsworld\FCNetLib\test\points\brasil.gdx
--- Generating MIP model master
--- bchfcnet.gms(3501) 7 Mb
---   3,365 rows  6,613 columns  16,531 non-zeroes
---   3,306 discrete-columns
--- Executing CPLEX (Solvelink=2): elapsed 0:00:00.150

IBM ILOG CPLEX   34.3.0 rac355f3 Released Feb 25, 2021 WEI x86 64bit/MS Window

--- GAMS/Cplex Link licensed for continuous and discrete problems.

Reading parameter(s) from "C:\Users\dekhi\Desktop\gamsworld\FCNetLib\test\cplex.op2"
>>  mipstart 1
Finished reading from "C:\Users\dekhi\Desktop\gamsworld\FCNetLib\test\cplex.op2"

--- Space for names approximately 0.21 Mb
--- Use option 'names no' to turn use of names off
--- GMO memory 2.15 Mb (peak 2.20 Mb)
--- Dictionary memory 0.00 Mb
--- Cplex 20.1.0.0 link memory 0.16 Mb (peak 0.69 Mb)
--- Starting Cplex

Version identifier: 20.1.0.0 | 2020-11-10 | 9bedb6d68
CPXPARAM_Threads                                 1
CPXPARAM_MIP_Display                             4
CPXPARAM_TimeLimit                               3600
CPXPARAM_MIP_Tolerances_AbsMIPGap                0
CPXPARAM_MIP_Tolerances_MIPGap                   0
Generic callback                                 0x50
Processing 1 MIP starts.
MIP start 'm1' defined solution with objective 13655.0000.
1 of 1 MIP starts provided solutions.
MIP start 'm1' defined initial solution with objective 13655.0000.
Tried aggregator 1 time.
MIP Presolve eliminated 57 rows and 1 columns.
MIP Presolve added 114 rows and 0 columns.
Reduced MIP has 3421 rows, 6612 columns, and 13338 nonzeros.
Reduced MIP has 3306 binaries, 0 generals, 0 SOSs, and 0 indicators.
Presolve time = 0.00 sec. (110.74 ticks)
Probing time = 0.00 sec. (0.71 ticks)
Tried aggregator 1 time.
Detecting symmetries...
Reduced MIP has 3421 rows, 6612 columns, and 13338 nonzeros.
Reduced MIP has 3306 binaries, 0 generals, 0 SOSs, and 0 indicators.
Presolve time = 0.00 sec. (110.62 ticks)
Probing time = 0.00 sec. (0.71 ticks)
MIP emphasis: balance optimality and feasibility.
MIP search method: dynamic search.
Parallel mode: none, using 1 thread.
Tried aggregator 1 time.
LP Presolve eliminated 3249 rows and 3249 columns.
Aggregator did 57 substitutions.
Reduced LP has 115 rows, 3306 columns, and 6726 nonzeros.
Presolve time = 0.02 sec. (3.32 ticks)

Iteration log . . .
Iteration:     1   Dual objective     =           307.000000
Initializing dual steep norms . . .
Root relaxation solution time = 0.02 sec. (6.95 ticks)

        Nodes                                         Cuts/
   Node  Left     Objective  IInf  Best Integer    Best Bound    ItCnt     Gap

*     0+    0                        13655.0000        0.0000           100.00%
Found incumbent of value 13655.000000 after 0.06 sec. (239.58 ticks)
      0     0     2208.7083    31    13655.0000     2208.7083       54   83.82%
      0     0     9769.3849    39    13655.0000      Cuts: 78      176   28.46%
      0     0    11411.6584    45    13655.0000      Cuts: 74      260   16.43%
      0     0    11900.7952    45    13655.0000      Cuts: 56      310   12.85%
      0     0    12129.5470    51    13655.0000      Cuts: 52      356   11.17%
      0     0    12252.5533    69    13655.0000      Cuts: 53      419   10.27%
Detecting symmetries...
      0     0    12406.2172    56    13655.0000      Cuts: 47      463    9.15%
      0     0    12540.9899    72    13655.0000      Cuts: 57      531    8.16%
      0     0    12730.8129    61    13655.0000      Cuts: 49      584    6.77%
      0     0    13012.2631    63    13655.0000      Cuts: 67      669    4.71%
      0     0    13099.7266    79    13655.0000      Cuts: 58      752    4.07%
      0     0    13164.7928    80    13655.0000      Cuts: 67      815    3.59%
      0     0    13190.1793    77    13655.0000      Cuts: 46      860    3.40%
      0     0    13200.2042    52    13655.0000      Cuts: 57      891    3.33%
      0     0    13278.7618    48    13655.0000      Cuts: 27      926    2.76%
      0     0    13300.2672    70    13655.0000      Cuts: 38      978    2.60%
      0     0    13308.9918    78    13655.0000      Cuts: 35     1047    2.53%
      0     0    13314.6584    78    13655.0000      Cuts: 47     1103    2.49%
      0     0    13326.7034    78    13655.0000      Cuts: 34     1152    2.40%
      0     0    13332.3200    80    13655.0000      Cuts: 30     1197    2.36%
      0     0    13336.5087    67    13655.0000      Cuts: 22     1224    2.33%
      0     0    13361.4801    86    13655.0000      Cuts: 39     1279    2.15%
      0     0    13365.5848    94    13655.0000      Cuts: 29     1324    2.12%
      0     0    13367.8027    93    13655.0000      Cuts: 25     1360    2.10%
      0     0    13369.8453    96    13655.0000      Cuts: 21     1388    2.09%
Detecting symmetries...

Repeating presolve.
Tried aggregator 3 times.
MIP Presolve eliminated 2813 rows and 5515 columns.
MIP Presolve modified 118 coefficients.
Aggregator did 5 substitutions.
Reduced MIP has 603 rows, 1092 columns, and 2191 nonzeros.
Reduced MIP has 546 binaries, 0 generals, 0 SOSs, and 0 indicators.
Presolve time = 0.00 sec. (23.31 ticks)
Probing time = 0.00 sec. (0.12 ticks)
Tried aggregator 1 time.
Detecting symmetries...
MIP Presolve eliminated 4 rows and 6 columns.
Reduced MIP has 599 rows, 1086 columns, and 2182 nonzeros.
Reduced MIP has 543 binaries, 0 generals, 0 SOSs, and 0 indicators.
Presolve time = 0.00 sec. (4.10 ticks)
Represolve time = 0.03 sec. (65.19 ticks)
Probing time = 0.00 sec. (0.12 ticks)
Clique table members: 1.
MIP emphasis: balance optimality and feasibility.
MIP search method: dynamic search.
Parallel mode: none, using 1 thread.
Tried aggregator 1 time.
LP Presolve eliminated 8 rows and 8 columns.
Reduced LP has 793 rows, 1078 columns, and 9012 nonzeros.
Presolve time = 0.00 sec. (0.96 ticks)
Initializing dual steep norms . . .

Iteration log . . .
Iteration:     1   Dual objective     =          4938.000000
Iteration:   107   Dual objective     =         12016.000000
Iteration:   202   Dual objective     =         12638.000000
Iteration:   297   Dual objective     =         13136.652174
Iteration:   385   Dual objective     =         13138.686594
Iteration:   461   Dual objective     =         13206.790158
Iteration:   529   Dual objective     =         13268.030782
Iteration:   621   Dual objective     =         13295.240081
Iteration:   691   Dual objective     =         13334.173301
Iteration:   757   Dual objective     =         13343.029490
Iteration:   819   Dual objective     =         13353.532166
Iteration:   881   Dual objective     =         13364.273399
Iteration:   946   Dual objective     =         13369.279202
Initializing dual steep norms . . .
Root relaxation solution time = 0.03 sec. (31.39 ticks)

        Nodes                                         Cuts/
   Node  Left     Objective  IInf  Best Integer    Best Bound    ItCnt     Gap

*     0+    0                        13655.0000    13369.8453             2.09%
Found incumbent of value 13655.000000 after 3.77 sec. (4676.64 ticks)
      0     0    13369.8453    95    13655.0000    13369.8453     2357    2.09%
      0     0    13502.9559    58    13655.0000      Cuts: 54     2514    1.11%
      0     0    13523.1799    90    13655.0000      Cuts: 75     2657    0.97%
Detecting symmetries...

Repeating presolve.
Tried aggregator 2 times.
MIP Presolve eliminated 218 rows and 432 columns.
MIP Presolve modified 37 coefficients.
Aggregator did 3 substitutions.
Reduced MIP has 378 rows, 651 columns, and 1313 nonzeros.
Reduced MIP has 326 binaries, 0 generals, 0 SOSs, and 0 indicators.
Presolve time = 0.00 sec. (2.71 ticks)
Probing time = 0.00 sec. (0.07 ticks)
Tried aggregator 1 time.
Detecting symmetries...
Reduced MIP has 378 rows, 651 columns, and 1313 nonzeros.
Reduced MIP has 326 binaries, 0 generals, 0 SOSs, and 0 indicators.
Presolve time = 0.00 sec. (1.79 ticks)
Represolve time = 0.01 sec. (10.52 ticks)
Probing time = 0.00 sec. (0.07 ticks)
Clique table members: 1.
MIP emphasis: balance optimality and feasibility.
MIP search method: dynamic search.
Parallel mode: none, using 1 thread.
Tried aggregator 1 time.
LP Presolve eliminated 7 rows and 7 columns.
Reduced LP has 549 rows, 644 columns, and 4974 nonzeros.
Presolve time = 0.00 sec. (0.55 ticks)
Initializing dual steep norms . . .

Iteration log . . .
Iteration:     1   Dual objective     =          6109.000000
Iteration:    90   Dual objective     =         11424.000000
Iteration:   168   Dual objective     =         12972.000000
Iteration:   241   Dual objective     =         13326.500000
Iteration:   303   Dual objective     =         13413.399395
Iteration:   370   Dual objective     =         13466.335037
Iteration:   432   Dual objective     =         13491.689373
Iteration:   494   Dual objective     =         13515.826671
Iteration:   556   Dual objective     =         13522.277908
Initializing dual steep norms . . .
Root relaxation solution time = 0.02 sec. (16.72 ticks)

        Nodes                                         Cuts/
   Node  Left     Objective  IInf  Best Integer    Best Bound    ItCnt     Gap

*     0+    0                        13655.0000    13523.1799             0.97%
Found incumbent of value 13655.000000 after 3.92 sec. (4840.70 ticks)
      0     0    13523.1799    90    13655.0000    13523.1799     3249    0.97%
      0     0    13539.8689    86    13655.0000     Cuts: 107     3386    0.84%
      0     0    13644.9512    67    13655.0000      Cuts: 92     3633    0.07%
      0     0    13653.9254    88    13655.0000      Cuts: 81     3760    0.01%
      0     0        cutoff          13655.0000                   3763    0.00%
Elapsed time = 4.03 sec. (4956.23 ticks, tree = 0.01 MB, solutions = 1)

Cover cuts applied:  38
Flow cuts applied:  145
Mixed integer rounding cuts applied:  23
Zero-half cuts applied:  5
Lift and project cuts applied:  9
Gomory fractional cuts applied:  3

Root node processing (before b&c):
  Real time             =    4.03 sec. (4956.41 ticks)
Sequential b&c:
  Real time             =    0.00 sec. (0.00 ticks)
                          ------------
Total (root+branch&cut) =    4.03 sec. (4956.41 ticks)

--- MIP status (101): integer optimal solution.
--- Cplex Time: 4.03sec (det. 4956.43 ticks)

--- Fixing integer variables and solving final LP...

Version identifier: 20.1.0.0 | 2020-11-10 | 9bedb6d68
CPXPARAM_Advance                                 2
CPXPARAM_Threads                                 1
CPXPARAM_MIP_Display                             4
CPXPARAM_TimeLimit                               3600
CPXPARAM_MIP_Tolerances_AbsMIPGap                0
CPXPARAM_MIP_Tolerances_MIPGap                   0
Tried aggregator 1 time.
LP Presolve eliminated 3364 rows and 6613 columns.
All rows and columns eliminated.
Presolve time = 0.00 sec. (2.26 ticks)

--- Fixed MIP status (1): optimal.
--- Cplex Time: 0.00sec (det. 3.81 ticks)


Proven optimal solution
MIP Solution:        13655.000000    (3763 iterations, 0 nodes)
Final Solve:         13655.000000    (0 iterations)

Best possible:       13655.000000
Absolute gap:            0.000000
Relative gap:            0.000000

--- Reading solution for model master
*** Status: Normal completion
--- Job bchfcnet.gms Stop 02/08/22 12:13:16 elapsed 0:00:04.261
